c
c start with comments
c
p cnf 29 23
21 11 4 0
16 14 11 1 0
9 8 0
-22 21 28 0
18 18 -11 12 -23 0
-19 25 -16 0
-17 -28 -14 -22 0
-28 -10 6 23 0
-27 -28 18 0
-12 6 13 0
27 -1 25 0
-30 -26 -29 -22 -22 0
-3 22 0
-9 1 -19 0
3 17 -24 0
-6 -5 0
-7 -28 13 0
-21 6 -30 -22 0
25 -23 -26 0
5 -20 0
-8 -25 0
-28 3 16 26 0
6 10 15 21 0